NAME : eil21-2.6_151.tour
COMMENT : Cost = 6_151
COMMENT : Found by LKH-3 [Keld Helsgaun] Sun Jun  8 20:40:43 2025
TYPE : TOUR
DIMENSION : 22
TOUR_SECTION
13
15
22
16
3
6
4
5
2
17
20
12
21
1
19
11
18
9
10
7
8
14
-1
EOF
